NAME: kroB150
COMMENT: Local search tour for kroB150 (30749.277913959966)
TYPE: TOUR
DIMENSION: 150
TOUR_SECTION: 1 85 15 79 110 20 64 42 55 67 31 47 6 134 75 22 112 8 106 17 25 90 34 58 88 28 148 98 109 145 114 108 113 138 54 149 104 2 35 68 30 102 23 50 133 124 72 62 83 126 39 71 38 101 56 119 5 43 86 95 91 123 94 129 131 139 121 76 111 70 21 122 89 41 59 118 73 3 69 74 57 100 33 136 144 97 81 45 36 14 143 99 141 10 92 19 105 66 103 48 96 87 150 52 11 84 128 44 63 51 127 146 135 16 120 37 29 18 49 93 4 116 60 140 115 77 80 147 65 13 130 107 27 40 12 125 46 142 24 32 132 61 26 9 78 82 7 117 137 53 -1
EOF